 ! --------------------------------------------------- CP Optimizer 22.1.1.0 --
 ! Satisfiability problem - 61000 variables, 815455 constraints
 ! Presolve      : 37500 extractables eliminated
 ! TimeLimit            = 3600
 ! Workers              = 1
 ! Initial process time : 7.30s (7.27s extraction + 0.04s propagation)
 !  . Log search space  : 625799.4 (before), 625799.4 (after)
 !  . Memory usage      : 475.6 MB (before), 475.6 MB (after)
 ! Using sequential search.
 ! ----------------------------------------------------------------------------
 !               Branches  Non-fixed            Branch decision
                     1099      60258        F          presenceOf(copy_bus_parking:45_0)
                     2016      49697        F   433  = endOf(copy_lane_parking:8_0)
                     3000      57483                   presenceOf(copy_lane_parking:0_65)
                     4000      39285                   presenceOf(copy_bus_parking:37_281)
                     5000      39427                   presenceOf(copy_lane_parking:0_183)
                     6000      27261                   presenceOf(copy_bus_parking:13_305)
                     7000      38584                   presenceOf(copy_lane_parking:7_49)
                     8000      20163                  !presenceOf(copy_trips:23_374)
                     9000      20163                   presenceOf(copy_lane_parking:7_136)
                    10000      28779                   presenceOf(copy_lane_parking:9_372)
                    11000      38584        F          presenceOf(copy_trips:0_374)
                    12000      37450        F          presenceOf(copy_bus_parking:1_0)
                    13000      37450                   presenceOf(copy_trips:37_374)
                    14000      38584                   presenceOf(copy_lane_parking:8_120)
                    15000      20640                   presenceOf(copy_lane_parking:7_95)
                    16000      38581                   presenceOf(copy_bus_parking:23_370)
                    17000      31156                  !presenceOf(copy_bus_parking:5_5)
                    18000      31156                   presenceOf(copy_trips:36_370)
                    19000      38587        F         !presenceOf(copy_trips:49_372)
                    20000      38581        F          presenceOf(copy_trips:48_370)
 ! Time = 52.72s, Average fail depth = 483, Memory usage = 1.8 GB
 !               Branches  Non-fixed            Branch decision
                    21000      38581        F          presenceOf(copy_bus_parking:19_368)
                    22000      20650                  !presenceOf(copy_trips:1_252)
                    23000      20650        F          presenceOf(copy_trips:26_0)
                    24000      21411                   presenceOf(copy_bus_parking:37_364)
                    25000      20772                   presenceOf(copy_lane_parking:3_29)
                    26000      20776                  !presenceOf(copy_trips:3_366)
                    27000      20776        F          presenceOf(copy_trips:16_40)
                    28000      25634                  !presenceOf(copy_trips:31_32)
                    29000      25637        F          presenceOf(copy_trips:2_40)
                    30000      25637        F          presenceOf(copy_trips:17_40)
                    31000      26207                   presenceOf(copy_lane_parking:8_362)
                    32000      42557                  !presenceOf(copy_trips:32_99)
                    33000      47364        F          presenceOf(copy_trips:41_9)
                    34000      54685                   presenceOf(copy_lane_parking:0_298)
                    35000      56023        F          presenceOf(copy_bus_parking:14_0)
                    36000      42460                  !presenceOf(copy_trips:31_28)
                    37000      42466                   presenceOf(copy_lane_parking:3_81)
                    38000      38590                   presenceOf(copy_lane_parking:5_233)
                    39000      25631                   presenceOf(copy_lane_parking:8_97)
                    40000      20927                   presenceOf(copy_lane_parking:6_212)
 ! Time = 96.84s, Average fail depth = 473, Memory usage = 1.8 GB
 !               Branches  Non-fixed            Branch decision
                    41000      38572        F          presenceOf(copy_trips:46_374)
                    42000      38575        F          presenceOf(copy_bus_parking:1_2)
                    43000      52098                  !presenceOf(copy_trips:18_25)
                    44000      44522                   presenceOf(copy_trips:18_83)
                    45000      44335                   presenceOf(copy_lane_parking:0_202)
                    46000      35556                   presenceOf(copy_bus_parking:1_15)
                    47000      53867                   presenceOf(copy_trips:22_5)
                    48000      54203                   presenceOf(copy_trips:15_5)
                    49000      54203        F         !presenceOf(copy_bus_parking:4_1)
                    50000      54203        F          presenceOf(copy_bus_parking:26_1)
                    51000      54203        F          presenceOf(copy_bus_parking:11_1)
                    52000      54203                  !presenceOf(copy_trips:5_3)
                    53000      54203        F          presenceOf(copy_bus_parking:4_1)
                    54000      54203                  !presenceOf(copy_trips:32_3)
                    55000      54203                  !presenceOf(copy_trips:25_3)
                    56000      54203                   presenceOf(copy_trips:43_3)
                    57000      54203        F          presenceOf(copy_bus_parking:4_1)
                    58000      54203        F          presenceOf(copy_bus_parking:26_1)
                    59000      54203                   presenceOf(copy_lane_parking:4_18)
                    60000      38584                   presenceOf(copy_lane_parking:0_143)
 ! Time = 132.34s, Average fail depth = 443, Memory usage = 1.8 GB
 !               Branches  Non-fixed            Branch decision
                    61000      39022                  !presenceOf(copy_trips:3_368)
                    62000      38596                   presenceOf(copy_lane_parking:3_157)
                    63000      38581                  !presenceOf(copy_bus_parking:11_370)
                    64000      20924                  !presenceOf(copy_bus_parking:27_271)
                    65000      20768        F          presenceOf(copy_bus_parking:16_271)
                    66000      38575                  !presenceOf(copy_bus_parking:10_374)
                    67000      38575                  !presenceOf(copy_bus_parking:18_374)
                    68000      38575                   presenceOf(copy_bus_parking:29_370)
                    69000      38578                  !presenceOf(copy_bus_parking:27_26)
                    70000      38575                   presenceOf(copy_lane_parking:1_120)
                    71000      38575                   presenceOf(copy_lane_parking:8_112)
                    72000      25803                   presenceOf(copy_lane_parking:0_106)
                    73000      20927                   presenceOf(copy_lane_parking:5_210)
                    74000      38563            247 != endOf(start_parking:47)
                    75000      20769                  !presenceOf(copy_bus_parking:0_366)
                    76000      20769                   presenceOf(copy_bus_parking:10_259)
                    77000      38584                  !presenceOf(copy_trips:9_268)
                    78000      38578                   presenceOf(copy_lane_parking:1_38)
                    79000      38593                  !presenceOf(copy_bus_parking:17_374)
                    80000      25619                  !presenceOf(copy_trips:15_40)
 ! Time = 172.60s, Average fail depth = 457, Memory usage = 1.8 GB
 !               Branches  Non-fixed            Branch decision
                    81000      25414                  !presenceOf(copy_bus_parking:20_32)
                    82000      25414                  !presenceOf(copy_bus_parking:14_32)
                    83000      25414                   presenceOf(copy_lane_parking:7_2)
                    84000      43603        F          presenceOf(copy_bus_parking:31_33)
                    85000      43603                  !presenceOf(copy_bus_parking:3_62)
                    86000      50957        F          presenceOf(copy_trips:19_5)
                    87000      50957        F          presenceOf(copy_trips:0_5)
                    88000      50957                   presenceOf(copy_lane_parking:8_131)
                    89000      41580                   presenceOf(copy_bus_parking:23_212)
                    90000      20622        F          presenceOf(copy_trips:13_0)
                    91000      38575                  !presenceOf(copy_trips:7_374)
                    92000      38575                   presenceOf(copy_trips:2_374)
                    93000      38575        F          presenceOf(copy_trips:31_374)
                    94000      38581        F          presenceOf(copy_trips:22_374)
                    95000      38575        F          presenceOf(copy_trips:45_374)
                    96000      38578        F          presenceOf(copy_trips:11_374)
                    97000      38578        F          presenceOf(copy_trips:45_374)
                    98000      38584        F         !presenceOf(copy_bus_parking:0_372)
                    99000      38578                  !presenceOf(copy_bus_parking:6_370)
                     100k      38584                   presenceOf(copy_trips:2_374)
 ! Time = 197.55s, Average fail depth = 465, Memory usage = 1.8 GB
 !               Branches  Non-fixed            Branch decision
                     101k      38581        F         !presenceOf(copy_bus_parking:0_372)
                     102k      38578        F          presenceOf(copy_trips:22_374)
                     103k      38581                   presenceOf(copy_trips:3_374)
                     104k      38575                   presenceOf(copy_lane_parking:2_277)
                     105k      20635                   presenceOf(copy_lane_parking:2_366)
                     106k      25824                   presenceOf(copy_lane_parking:6_256)
                     107k      38596                   presenceOf(copy_lane_parking:1_109)
                     108k      38584                  !presenceOf(copy_bus_parking:14_374)
                     109k      36463                   presenceOf(copy_bus_parking:40_5)
                     110k      26026                  !presenceOf(copy_bus_parking:9_40)
                     111k      25399        F          presenceOf(copy_trips:40_24)
                     112k      43606                   presenceOf(copy_bus_parking:12_101)
                     113k      42508                  !presenceOf(copy_bus_parking:37_28)
                     114k      42508                  !presenceOf(copy_bus_parking:48_28)
                     115k      42511        F         !presenceOf(copy_bus_parking:46_28)
                     116k      38584                  !presenceOf(copy_bus_parking:46_372)
                     117k      20641                  !presenceOf(copy_trips:14_366)
                     118k      20641        F         !presenceOf(copy_trips:35_19)
                     119k      38578        F          presenceOf(copy_bus_parking:23_370)
                     120k      38578        F          presenceOf(copy_bus_parking:12_370)
 ! Time = 240.05s, Average fail depth = 469, Memory usage = 1.8 GB
 !               Branches  Non-fixed            Branch decision
                     121k      38578        F          presenceOf(copy_bus_parking:45_370)
                     122k      38581                   presenceOf(copy_lane_parking:3_58)
                     123k      38566        F          presenceOf(copy_trips:10_372)
                     124k      38572        F         !presenceOf(copy_trips:23_372)
                     125k      38587                   presenceOf(copy_lane_parking:7_139)
                     126k      38566                   presenceOf(copy_lane_parking:4_352)
                     127k      43253                   presenceOf(copy_bus_parking:37_96)
                     128k      42463                  !presenceOf(copy_trips:33_28)
                     129k      42460        F          presenceOf(copy_bus_parking:48_26)
                     130k      42460                  !presenceOf(copy_trips:38_28)
                     131k      42460                   presenceOf(copy_bus_parking:20_26)
                     132k      42460                  !presenceOf(copy_trips:2_28)
                     133k      42460                  !presenceOf(copy_trips:1_28)
                     134k      42460                  !presenceOf(copy_trips:41_28)
                     135k      42460                  !presenceOf(copy_trips:48_28)
                     136k      42460                  !presenceOf(copy_trips:11_28)
                     137k      42457                  !presenceOf(copy_trips:23_28)
                     138k      42457                  !presenceOf(copy_trips:10_28)
                     139k      42457                   presenceOf(copy_bus_parking:18_26)
                     140k      42463                   presenceOf(copy_lane_parking:7_363)
 ! Time = 280.52s, Average fail depth = 468, Memory usage = 1.8 GB
 !               Branches  Non-fixed            Branch decision
                     141k      38572                   presenceOf(copy_bus_parking:41_370)
                     142k      38572                   presenceOf(copy_trips:21_370)
                     143k      38581                   presenceOf(copy_lane_parking:4_218)
                     144k      31483                   presenceOf(copy_lane_parking:3_117)
                     145k      38560        F          presenceOf(copy_bus_parking:26_374)
                     146k      38563        F          presenceOf(copy_bus_parking:24_374)
                     147k      38560                   presenceOf(copy_bus_parking:16_374)
                     148k      38572                   presenceOf(copy_trips:40_175)
                     149k      20776        F          presenceOf(copy_bus_parking:2_271)
                     150k      20927        F          presenceOf(copy_bus_parking:29_271)
                     151k      20770        F          presenceOf(copy_bus_parking:35_271)
                     152k      20927        F          presenceOf(copy_bus_parking:49_271)
                     153k      20767        F          presenceOf(copy_bus_parking:16_271)
                     154k      20776        F          presenceOf(copy_bus_parking:17_271)
                     155k      20927        F          presenceOf(copy_bus_parking:2_271)
                     156k      20770        F          presenceOf(copy_bus_parking:5_271)
                     157k      20927        F          presenceOf(copy_bus_parking:35_271)
                     158k      20927        F          presenceOf(copy_bus_parking:49_271)
                     159k      20927        F          presenceOf(copy_bus_parking:30_271)
                     160k      20927        F          presenceOf(copy_bus_parking:12_271)
 ! Time = 303.13s, Average fail depth = 486, Memory usage = 1.8 GB
 !               Branches  Non-fixed            Branch decision
                     161k      20770                   presenceOf(copy_lane_parking:6_13)
                     162k      42487                   presenceOf(copy_lane_parking:1_173)
                     163k      54760                  !presenceOf(copy_bus_parking:20_3)
                     164k      38554        F          presenceOf(copy_trips:40_372)
                     165k      38557        F          presenceOf(copy_trips:32_374)
                     166k      38590                  !presenceOf(copy_bus_parking:5_33)
                     167k      43615                  !presenceOf(copy_bus_parking:32_33)
                     168k      43615                  !presenceOf(copy_bus_parking:25_33)
                     169k      43615        F          presenceOf(copy_bus_parking:25_31)
                     170k      43615        F          presenceOf(copy_bus_parking:18_31)
                     171k      43609                  !presenceOf(copy_bus_parking:36_33)
                     172k      43609                  !presenceOf(copy_bus_parking:6_33)
                     173k      43609                  !presenceOf(copy_bus_parking:25_33)
                     174k      43609                  !presenceOf(copy_bus_parking:29_33)
                     175k      43609                  !presenceOf(copy_bus_parking:10_33)
                     176k      43609                  !presenceOf(copy_bus_parking:48_33)
                     177k      43612        F          presenceOf(copy_bus_parking:36_31)
                     178k      43612                  !presenceOf(copy_bus_parking:34_33)
                     179k      43612                  !presenceOf(copy_bus_parking:9_33)
                     180k      43612                  !presenceOf(copy_bus_parking:38_33)
 ! Time = 334.93s, Average fail depth = 484, Memory usage = 1.8 GB
 !               Branches  Non-fixed            Branch decision
                     181k      43612                  !presenceOf(copy_bus_parking:37_33)
                     182k      43612                  !presenceOf(copy_bus_parking:29_33)
                     183k      43612                  !presenceOf(copy_bus_parking:48_33)
                     184k      43612                  !presenceOf(copy_bus_parking:19_33)
                     185k      43612        F          presenceOf(copy_bus_parking:26_31)
                     186k      43612        F          presenceOf(copy_bus_parking:36_31)
                     187k      43612                  !presenceOf(copy_bus_parking:16_33)
                     188k      43612        F          presenceOf(copy_bus_parking:45_31)
                     189k      43612                  !presenceOf(copy_bus_parking:5_33)
                     190k      43612                  !presenceOf(copy_bus_parking:11_33)
                     191k      43612                  !presenceOf(copy_bus_parking:21_33)
                     192k      43609        F          presenceOf(copy_bus_parking:15_31)
                     193k      43609        F          presenceOf(copy_bus_parking:21_31)
                     194k      43609        F          presenceOf(copy_bus_parking:16_31)
                     195k      42331                  !presenceOf(copy_trips:49_29)
                     196k      42328                  !presenceOf(copy_trips:33_26)
                     197k      42328        F          presenceOf(copy_trips:4_27)
                     198k      42328        F          presenceOf(copy_trips:49_27)
                     199k      42328                   presenceOf(copy_trips:33_26)
                     200k      42328                  !presenceOf(copy_trips:0_26)
 ! Time = 369.05s, Average fail depth = 482, Memory usage = 1.8 GB
 !               Branches  Non-fixed            Branch decision
                     201k      42328                  !presenceOf(copy_trips:7_26)
                     202k      42328        F         !presenceOf(copy_trips:31_26)
                     203k      42328        F          presenceOf(copy_bus_parking:0_19)
                     204k      42328                  !presenceOf(copy_trips:28_26)
                     205k      42328                  !presenceOf(copy_trips:3_26)
                     206k      42409                  !presenceOf(copy_trips:1_26)
                     207k      42334                  !presenceOf(copy_trips:16_26)
                     208k      42331                  !presenceOf(copy_trips:32_26)
                     209k      42331        F          presenceOf(copy_trips:5_26)
                     210k      42331                  !presenceOf(copy_trips:7_26)
                     211k      42328                  !presenceOf(copy_trips:23_26)
                     212k      42328                  !presenceOf(copy_trips:4_26)
                     213k      42328                  !presenceOf(copy_trips:8_29)
                     214k      42328        F          presenceOf(copy_trips:5_27)
                     215k      42328                  !presenceOf(copy_trips:35_26)
                     216k      42328                  !presenceOf(copy_trips:18_26)
                     217k      42328                   presenceOf(copy_lane_parking:0_270)
                     218k      20750                   presenceOf(copy_lane_parking:7_12)
                     219k      42331                   presenceOf(copy_lane_parking:9_325)
                     220k      36073        F          presenceOf(copy_bus_parking:28_4)
 ! Time = 412.30s, Average fail depth = 481, Memory usage = 1.8 GB
 !               Branches  Non-fixed            Branch decision
                     221k      36073                  !presenceOf(copy_bus_parking:8_5)
                     222k      36073        F          presenceOf(copy_bus_parking:33_4)
                     223k      36073                  !presenceOf(copy_trips:1_123)
                     224k      42449                   presenceOf(copy_bus_parking:45_9)
                     225k      20924        F          presenceOf(copy_bus_parking:44_271)
                     226k      20924                  !presenceOf(copy_trips:33_26)
                     227k      42659                  !presenceOf(copy_trips:19_28)
                     228k      42490        F          presenceOf(copy_trips:43_6)
                     229k      38581                  !presenceOf(copy_bus_parking:27_370)
                     230k      38581                  !presenceOf(copy_bus_parking:11_370)
                     231k      38581                   presenceOf(copy_lane_parking:1_372)
                     232k      20777        F          presenceOf(copy_bus_parking:32_271)
                     233k      20780                   presenceOf(copy_trips:25_8)
                     234k      53538        F          presenceOf(copy_trips:29_52)
                     235k      53538                  !presenceOf(copy_trips:22_36)
                     236k      53538        F          presenceOf(copy_trips:44_33)
                     237k      38593                  !presenceOf(copy_bus_parking:18_370)
                     238k      20631        F          presenceOf(copy_bus_parking:4_366)
                     239k      20631                   presenceOf(copy_trips:30_1)
                     240k      42587                  !presenceOf(copy_trips:14_117)
 ! Time = 452.33s, Average fail depth = 478, Memory usage = 1.8 GB
 !               Branches  Non-fixed            Branch decision
                     241k      42587                  !presenceOf(copy_bus_parking:32_5)
                     242k      38584                  !presenceOf(copy_bus_parking:49_370)
                     243k      38584        F          presenceOf(copy_bus_parking:28_374)
                     244k      38584                  !presenceOf(copy_bus_parking:44_370)
                     245k      38587                   presenceOf(copy_lane_parking:5_94)
                     246k      42656        F          presenceOf(copy_bus_parking:23_19)
                     247k      42656        F          presenceOf(copy_bus_parking:23_19)
                     248k      42659                  !presenceOf(copy_bus_parking:14_27)
                     249k      42659                  !presenceOf(copy_bus_parking:40_27)
                     250k      42659                  !presenceOf(copy_bus_parking:44_27)
                     251k      42656                  !presenceOf(copy_bus_parking:48_27)
                     252k      42656        F          presenceOf(copy_bus_parking:24_26)
                     253k      42656        F          presenceOf(copy_bus_parking:40_26)
                     254k      42656        F          presenceOf(copy_bus_parking:41_26)
                     255k      42656                  !presenceOf(copy_bus_parking:29_27)
                     256k      42656        F         !presenceOf(copy_bus_parking:4_27)
                     257k      42656                   presenceOf(copy_bus_parking:13_26)
                     258k      42656        F          presenceOf(copy_bus_parking:23_19)
                     259k      42656                  !presenceOf(copy_bus_parking:7_33)
                     260k      43597        F          presenceOf(copy_trips:16_7)
 ! Time = 492.90s, Average fail depth = 476, Memory usage = 1.8 GB
 !               Branches  Non-fixed            Branch decision
                     261k      42533                  !presenceOf(copy_trips:33_0)
                     262k      38715                  !presenceOf(copy_bus_parking:2_370)
                     263k      38572        F          presenceOf(copy_bus_parking:28_372)
                     264k      38575                  !presenceOf(copy_bus_parking:43_370)
                     265k      38572                  !presenceOf(copy_bus_parking:40_370)
                     266k      38572                  !presenceOf(copy_bus_parking:43_370)
                     267k      38572                  !presenceOf(copy_bus_parking:46_370)
                     268k      38572                  !presenceOf(copy_bus_parking:38_370)
                     269k      38572                  !presenceOf(copy_bus_parking:3_370)
                     270k      38569                  !presenceOf(copy_bus_parking:45_370)
                     271k      38572                  !presenceOf(copy_bus_parking:41_370)
                     272k      38572                  !presenceOf(copy_bus_parking:33_370)
                     273k      38572        F          presenceOf(copy_trips:32_374)
                     274k      38572                  !presenceOf(copy_bus_parking:45_370)
                     275k      38572                   presenceOf(copy_lane_parking:6_235)
                     276k      20782                   presenceOf(copy_trips:5_252)
                     277k      20782        F          presenceOf(copy_bus_parking:5_370)
                     278k      38596        F          presenceOf(copy_trips:13_0)
                     279k      54712        F          presenceOf(copy_trips:4_0)
                     280k      54858                  !presenceOf(copy_trips:31_2)
 ! Time = 522.72s, Average fail depth = 475, Memory usage = 1.8 GB
 !               Branches  Non-fixed            Branch decision
                     281k      54713                   presenceOf(copy_lane_parking:0_80)
                     282k      38572        F          presenceOf(copy_trips:39_374)
                     283k      38572                  !presenceOf(copy_bus_parking:10_370)
                     284k      38575        F          presenceOf(copy_trips:42_374)
                     285k      38572        F          presenceOf(copy_trips:11_374)
                     286k      38572                  !presenceOf(copy_bus_parking:17_370)
                     287k      38575        F         !presenceOf(copy_trips:1_372)
                     288k      38572        F         !presenceOf(copy_trips:1_372)
                     289k      38572                   presenceOf(copy_trips:13_374)
                     290k      38572        F          presenceOf(copy_trips:19_374)
                     291k      38572                   presenceOf(copy_trips:31_374)
                     292k      38575        F          presenceOf(copy_trips:32_374)
                     293k      38575        F         !presenceOf(copy_trips:29_372)
                     294k      38572        F          presenceOf(copy_trips:7_374)
                     295k      38572        F          presenceOf(copy_trips:23_374)
                     296k      38575        F          presenceOf(copy_trips:40_374)
                     297k      38575        F         !presenceOf(copy_trips:1_372)
                     298k      38572        F         !presenceOf(copy_trips:1_372)
                     299k      38572        F          presenceOf(copy_trips:0_374)
                     300k      38572        F         !presenceOf(copy_trips:1_372)
 ! Time = 544.97s, Average fail depth = 477, Memory usage = 1.8 GB
 !               Branches  Non-fixed            Branch decision
                     301k      38572        F         !presenceOf(copy_trips:29_372)
                     302k      38578                   presenceOf(copy_trips:4_374)
                     303k      38575        F          presenceOf(copy_trips:7_374)
                     304k      38572                  !presenceOf(copy_bus_parking:28_370)
                     305k      38572        F          presenceOf(copy_trips:22_374)
                     306k      38575        F          presenceOf(copy_trips:33_374)
                     307k      38572        F          presenceOf(copy_trips:39_374)
                     308k      38575        F          presenceOf(copy_trips:23_374)
                     309k      38575        F          presenceOf(copy_trips:46_374)
                     310k      38575                   presenceOf(copy_trips:10_374)
                     311k      38578        F         !presenceOf(copy_trips:29_372)
                     312k      38578                  !presenceOf(copy_bus_parking:25_370)
                     313k      38575        F         !presenceOf(copy_trips:1_372)
                     314k      38575                   presenceOf(copy_trips:6_374)
                     315k      38578        F          presenceOf(copy_trips:35_374)
                     316k      38575        F         !presenceOf(copy_bus_parking:9_370)
                     317k      38578        F          presenceOf(copy_trips:46_374)
                     318k      38575                   presenceOf(copy_trips:5_374)
                     319k      38575        F         !presenceOf(copy_trips:29_372)
                     320k      38575                   presenceOf(copy_trips:31_374)
 ! Time = 566.51s, Average fail depth = 479, Memory usage = 1.8 GB
 !               Branches  Non-fixed            Branch decision
                     321k      38578        F         !presenceOf(copy_trips:1_372)
                     322k      38581                   presenceOf(copy_trips:10_374)
                     323k      38578        F          presenceOf(copy_trips:19_374)
                     324k      38569        F          presenceOf(copy_trips:39_374)
                     325k      38569        F          presenceOf(copy_trips:7_374)
                     326k      38572        F          presenceOf(copy_trips:46_374)
                     327k      38572        F         !presenceOf(copy_trips:29_372)
                     328k      38572                   presenceOf(copy_trips:1_374)
                     329k      38572        F          presenceOf(copy_trips:25_374)
                     330k      38569        F          presenceOf(copy_trips:42_374)
                     331k      38575        F          presenceOf(copy_trips:40_374)
                     332k      38572        F          presenceOf(copy_trips:33_374)
                     333k      38572                  !presenceOf(copy_trips:24_26)
                     334k      26512                  !presenceOf(copy_bus_parking:25_35)
                     335k      26512                  !presenceOf(copy_bus_parking:47_35)
                     336k      26515                  !presenceOf(copy_bus_parking:41_35)
                     337k      26512                  !presenceOf(copy_bus_parking:37_35)
                     338k      26548                  !presenceOf(copy_trips:47_105)
                     339k      44109                  !presenceOf(copy_bus_parking:32_3)
                     340k      38578                  !presenceOf(copy_trips:25_370)
 ! Time = 595.54s, Average fail depth = 480, Memory usage = 1.8 GB
 !               Branches  Non-fixed            Branch decision
                     341k      38578                  !presenceOf(copy_trips:30_105)
                     342k      30021        F          presenceOf(copy_trips:20_199)
                     343k      16987           2530  = startOf(charge:37_202)
                     344k         48           3985  = startOf(charge:21_332)
 *                   344k  603.09s                   -
 ! ----------------------------------------------------------------------------
 ! Search completed, 1 solution found.
 ! ----------------------------------------------------------------------------
 ! Number of branches     : 344139
 ! Number of fails        : 140561
 ! Total memory usage     : 2.0 GB (2.0 GB CP Optimizer + 0.0 GB Concert)
 ! Time spent in solve    : 603.10s (595.84s engine + 7.27s extraction)
 ! Search speed (br. / s) : 577.6
 ! ----------------------------------------------------------------------------
